NAME: cuum570.tsp
TYPE: TSP
COMMENT: User-generated TSP file
DIMENSION: 570
EDGE_WEIGHT_TYPE: EUC_2D
NODE_COORD_SECTION
1 378.0 555.0
2 527.0 437.0
3 509.0 565.0
4 445.0 410.0
5 126.0 346.0
6 354.0 387.0
7 184.0 129.0
8 496.0 338.0
9 481.0 152.0
10 566.0 91.0
11 215.0 472.0
12 89.0 229.0
13 504.0 482.0
14 402.0 438.0
15 501.0 483.0
16 20.0 303.0
17 541.0 435.0
18 289.0 320.0
19 398.0 146.0
20 231.0 50.0
21 500.0 106.0
22 53.0 157.0
23 502.0 188.0
24 66.0 266.0
25 110.0 278.0
26 46.0 278.0
27 5.0 325.0
28 370.0 126.0
29 393.0 432.0
30 275.0 215.0
31 42.0 79.0
32 558.0 479.0
33 146.0 103.0
34 8.0 303.0
35 292.0 204.0
36 229.0 171.0
37 487.0 275.0
38 553.0 462.0
39 8.0 345.0
40 492.0 165.0
41 36.0 76.0
42 212.0 35.0
43 79.0 430.0
44 260.0 206.0
45 7.0 216.0
46 312.0 98.0
47 376.0 91.0
48 144.0 215.0
49 224.0 325.0
50 245.0 38.0
51 427.0 99.0
52 67.0 56.0
53 501.0 147.0
54 278.0 298.0
55 393.0 281.0
56 60.0 29.0
57 27.0 431.0
58 29.0 546.0
59 199.0 287.0
60 215.0 282.0
61 158.0 424.0
62 292.0 481.0
63 201.0 224.0
64 473.0 393.0
65 76.0 113.0
66 189.0 51.0
67 202.0 233.0
68 241.0 336.0
69 533.0 85.0
70 87.0 520.0
71 96.0 285.0
72 422.0 553.0
73 374.0 74.0
74 436.0 76.0
75 442.0 194.0
76 529.0 27.0
77 98.0 551.0
78 429.0 407.0
79 307.0 213.0
80 279.0 244.0
81 30.0 149.0
82 508.0 190.0
83 285.0 420.0
84 303.0 330.0
85 438.0 181.0
86 174.0 412.0
87 443.0 248.0
88 429.0 550.0
89 395.0 433.0
90 379.0 386.0
91 10.0 352.0
92 263.0 567.0
93 533.0 89.0
94 244.0 41.0
95 161.0 479.0
96 246.0 496.0
97 299.0 138.0
98 186.0 325.0
99 562.0 312.0
100 557.0 76.0
101 185.0 111.0
102 343.0 358.0
103 148.0 353.0
104 403.0 132.0
105 526.0 31.0
106 210.0 228.0
107 423.0 140.0
108 214.0 562.0
109 547.0 2.0
110 254.0 478.0
111 265.0 62.0
112 563.0 163.0
113 567.0 379.0
114 147.0 412.0
115 549.0 541.0
116 136.0 147.0
117 256.0 211.0
118 137.0 407.0
119 547.0 506.0
120 481.0 336.0
121 6.0 283.0
122 152.0 332.0
123 345.0 483.0
124 61.0 420.0
125 251.0 470.0
126 31.0 409.0
127 250.0 298.0
128 28.0 430.0
129 516.0 323.0
130 528.0 187.0
131 107.0 235.0
132 34.0 182.0
133 201.0 393.0
134 272.0 325.0
135 100.0 366.0
136 322.0 106.0
137 44.0 440.0
138 33.0 393.0
139 477.0 283.0
140 450.0 102.0
141 8.0 18.0
142 40.0 8.0
143 125.0 455.0
144 76.0 399.0
145 394.0 244.0
146 554.0 296.0
147 408.0 225.0
148 260.0 45.0
149 64.0 397.0
150 423.0 122.0
151 203.0 66.0
152 300.0 126.0
153 212.0 503.0
154 296.0 160.0
155 309.0 244.0
156 165.0 570.0
157 182.0 524.0
158 498.0 392.0
159 505.0 76.0
160 147.0 471.0
161 387.0 216.0
162 34.0 294.0
163 569.0 298.0
164 504.0 535.0
165 280.0 211.0
166 316.0 411.0
167 90.0 161.0
168 321.0 80.0
169 60.0 561.0
170 110.0 292.0
171 344.0 419.0
172 545.0 555.0
173 418.0 15.0
174 526.0 197.0
175 34.0 315.0
176 267.0 52.0
177 123.0 422.0
178 360.0 150.0
179 555.0 459.0
180 481.0 309.0
181 465.0 243.0
182 62.0 444.0
183 369.0 19.0
184 8.0 456.0
185 518.0 51.0
186 558.0 457.0
187 493.0 456.0
188 464.0 358.0
189 559.0 58.0
190 287.0 460.0
191 321.0 30.0
192 13.0 137.0
193 163.0 286.0
194 180.0 339.0
195 401.0 38.0
196 153.0 190.0
197 150.0 93.0
198 281.0 555.0
199 286.0 464.0
200 346.0 98.0
201 542.0 115.0
202 26.0 193.0
203 64.0 241.0
204 357.0 99.0
205 107.0 502.0
206 364.0 168.0
207 313.0 46.0
208 220.0 284.0
209 113.0 142.0
210 278.0 150.0
211 204.0 186.0
212 189.0 330.0
213 96.0 510.0
214 453.0 217.0
215 483.0 95.0
216 414.0 402.0
217 315.0 39.0
218 41.0 345.0
219 193.0 536.0
220 300.0 87.0
221 343.0 71.0
222 570.0 392.0
223 381.0 130.0
224 66.0 478.0
225 507.0 480.0
226 474.0 566.0
227 321.0 4.0
228 187.0 543.0
229 441.0 400.0
230 415.0 211.0
231 420.0 401.0
232 195.0 18.0
233 350.0 429.0
234 67.0 402.0
235 556.0 564.0
236 158.0 196.0
237 451.0 201.0
238 258.0 481.0
239 404.0 454.0
240 424.0 18.0
241 494.0 486.0
242 405.0 561.0
243 544.0 15.0
244 566.0 249.0
245 557.0 99.0
246 211.0 384.0
247 431.0 267.0
248 554.0 150.0
249 190.0 97.0
250 343.0 485.0
251 253.0 125.0
252 466.0 456.0
253 53.0 12.0
254 81.0 517.0
255 402.0 23.0
256 559.0 210.0
257 493.0 544.0
258 550.0 534.0
259 123.0 462.0
260 565.0 165.0
261 176.0 114.0
262 291.0 123.0
263 182.0 137.0
264 304.0 508.0
265 318.0 284.0
266 471.0 187.0
267 353.0 178.0
268 182.0 104.0
269 163.0 401.0
270 236.0 335.0
271 167.0 426.0
272 365.0 102.0
273 154.0 407.0
274 170.0 424.0
275 158.0 119.0
276 421.0 35.0
277 485.0 426.0
278 116.0 455.0
279 114.0 132.0
280 322.0 177.0
281 238.0 40.0
282 400.0 276.0
283 440.0 9.0
284 453.0 267.0
285 175.0 286.0
286 458.0 545.0
287 277.0 98.0
288 122.0 97.0
289 467.0 445.0
290 113.0 191.0
291 526.0 482.0
292 49.0 323.0
293 98.0 498.0
294 155.0 471.0
295 354.0 33.0
296 266.0 157.0
297 552.0 341.0
298 175.0 13.0
299 219.0 466.0
300 401.0 495.0
301 179.0 264.0
302 486.0 491.0
303 25.0 425.0
304 439.0 466.0
305 502.0 121.0
306 320.0 342.0
307 73.0 493.0
308 17.0 431.0
309 208.0 465.0
310 122.0 13.0
311 474.0 463.0
312 283.0 305.0
313 375.0 310.0
314 46.0 354.0
315 548.0 438.0
316 131.0 328.0
317 29.0 319.0
318 1.0 427.0
319 98.0 54.0
320 84.0 474.0
321 523.0 195.0
322 554.0 279.0
323 51.0 499.0
324 314.0 348.0
325 237.0 498.0
326 60.0 463.0
327 86.0 307.0
328 250.0 317.0
329 351.0 376.0
330 74.0 241.0
331 337.0 67.0
332 289.0 277.0
333 136.0 274.0
334 175.0 19.0
335 510.0 116.0
336 239.0 515.0
337 116.0 110.0
338 21.0 539.0
339 308.0 142.0
340 151.0 242.0
341 138.0 341.0
342 404.0 557.0
343 140.0 89.0
344 329.0 547.0
345 236.0 115.0
346 123.0 46.0
347 203.0 529.0
348 374.0 3.0
349 93.0 495.0
350 152.0 318.0
351 129.0 251.0
352 208.0 504.0
353 386.0 87.0
354 210.0 227.0
355 295.0 568.0
356 35.0 381.0
357 142.0 482.0
358 344.0 55.0
359 490.0 418.0
360 123.0 331.0
361 34.0 225.0
362 501.0 204.0
363 166.0 261.0
364 292.0 189.0
365 270.0 282.0
366 50.0 313.0
367 241.0 473.0
368 56.0 428.0
369 482.0 423.0
370 265.0 484.0
371 452.0 76.0
372 560.0 178.0
373 304.0 570.0
374 84.0 114.0
375 492.0 363.0
376 199.0 381.0
377 531.0 332.0
378 20.0 400.0
379 278.0 38.0
380 68.0 133.0
381 302.0 382.0
382 329.0 21.0
383 507.0 285.0
384 507.0 301.0
385 154.0 52.0
386 58.0 86.0
387 195.0 278.0
388 83.0 531.0
389 563.0 457.0
390 148.0 98.0
391 399.0 222.0
392 105.0 296.0
393 147.0 67.0
394 186.0 435.0
395 47.0 288.0
396 348.0 105.0
397 125.0 63.0
398 313.0 182.0
399 248.0 233.0
400 343.0 183.0
401 57.0 24.0
402 386.0 68.0
403 462.0 17.0
404 557.0 96.0
405 202.0 235.0
406 327.0 552.0
407 357.0 239.0
408 468.0 420.0
409 523.0 556.0
410 341.0 180.0
411 138.0 195.0
412 362.0 33.0
413 198.0 42.0
414 140.0 365.0
415 350.0 190.0
416 250.0 466.0
417 16.0 458.0
418 99.0 495.0
419 159.0 320.0
420 30.0 569.0
421 240.0 551.0
422 15.0 516.0
423 245.0 392.0
424 186.0 146.0
425 449.0 473.0
426 360.0 398.0
427 63.0 44.0
428 258.0 401.0
429 47.0 261.0
430 174.0 130.0
431 464.0 137.0
432 238.0 462.0
433 346.0 39.0
434 3.0 350.0
435 311.0 374.0
436 347.0 53.0
437 197.0 78.0
438 418.0 112.0
439 542.0 502.0
440 525.0 258.0
441 65.0 120.0
442 1.0 73.0
443 458.0 160.0
444 23.0 134.0
445 540.0 444.0
446 548.0 442.0
447 54.0 468.0
448 205.0 238.0
449 249.0 245.0
450 518.0 180.0
451 200.0 285.0
452 352.0 511.0
453 559.0 159.0
454 427.0 71.0
455 374.0 156.0
456 514.0 387.0
457 253.0 390.0
458 19.0 18.0
459 523.0 96.0
460 47.0 474.0
461 560.0 98.0
462 516.0 31.0
463 542.0 27.0
464 384.0 413.0
465 240.0 457.0
466 203.0 242.0
467 32.0 157.0
468 489.0 486.0
469 543.0 469.0
470 245.0 267.0
471 180.0 51.0
472 567.0 212.0
473 70.0 62.0
474 366.0 96.0
475 293.0 207.0
476 266.0 385.0
477 547.0 324.0
478 300.0 423.0
479 67.0 131.0
480 570.0 367.0
481 268.0 394.0
482 468.0 477.0
483 79.0 83.0
484 201.0 344.0
485 249.0 463.0
486 269.0 27.0
487 441.0 254.0
488 511.0 261.0
489 94.0 234.0
490 476.0 222.0
491 238.0 46.0
492 539.0 549.0
493 283.0 424.0
494 130.0 273.0
495 55.0 172.0
496 537.0 219.0
497 114.0 154.0
498 213.0 128.0
499 509.0 487.0
500 16.0 490.0
501 42.0 457.0
502 357.0 333.0
503 140.0 218.0
504 229.0 424.0
505 79.0 413.0
506 151.0 263.0
507 446.0 296.0
508 309.0 421.0
509 185.0 291.0
510 80.0 225.0
511 488.0 290.0
512 441.0 417.0
513 332.0 354.0
514 508.0 515.0
515 152.0 40.0
516 151.0 85.0
517 292.0 471.0
518 267.0 66.0
519 408.0 259.0
520 193.0 219.0
521 356.0 261.0
522 417.0 492.0
523 209.0 452.0
524 499.0 326.0
525 395.0 328.0
526 45.0 174.0
527 438.0 135.0
528 517.0 359.0
529 447.0 418.0
530 52.0 344.0
531 554.0 397.0
532 55.0 441.0
533 471.0 261.0
534 203.0 144.0
535 169.0 497.0
536 470.0 512.0
537 335.0 152.0
538 55.0 209.0
539 50.0 199.0
540 427.0 116.0
541 162.0 322.0
542 406.0 515.0
543 225.0 169.0
544 108.0 240.0
545 467.0 400.0
546 530.0 513.0
547 113.0 541.0
548 47.0 15.0
549 296.0 393.0
550 60.0 268.0
551 408.0 20.0
552 326.0 513.0
553 287.0 460.0
554 440.0 311.0
555 246.0 567.0
556 60.0 543.0
557 390.0 434.0
558 495.0 80.0
559 467.0 427.0
560 35.0 213.0
561 166.0 62.0
562 154.0 118.0
563 526.0 58.0
564 54.0 497.0
565 411.0 509.0
566 316.0 504.0
567 78.0 377.0
568 239.0 394.0
569 4.0 58.0
570 407.0 444.0
EOF





